
  22   10
  10   10   10   10   10   10   10   10   10   10

   0   0   0   0   0   0   0   0   0   0   0   1 2 
   9  10  10  10  10  10  10  10  10  10  10   1 3 
   4  10  10  10  10  10  10  10  10  10  10   1 4 
   4  10  10  10  10  10  10  10  10  10  10   1 5 
   7  10  10  10  10  10  10  10  10  10  10   1 6 
   1  10  10  10  10  10  10  10  10  10  10   1 7 
   2  10  10  10  10  10  10  10  10  10  10   2 17 8 
   6  10  10  10  10  10  10  10  10  10  10   1 9 
   6  10  10  10  10  10  10  10  10  10  10   1 10 
   1  10  10  10  10  10  10  10  10  10  10   1 11 
   5  10  10  10  10  10  10  10  10  10  10   1 12 
   6  10  10  10  10  10  10  10  10  10  10   1 13 
   8  10  10  10  10  10  10  10  10  10  10   1 14 
   9  10  10  10  10  10  10  10  10  10  10   1 15 
   4  10  10  10  10  10  10  10  10  10  10   2 21 16 
   1  10  10  10  10  10  10  10  10  10  10   1 18 
   1  10  10  10  10  10  10  10  10  10  10   2 21 20 
   2  10  10  10  10  10  10  10  10  10  10   1 19 
   3  10  10  10  10  10  10  10  10  10  10   1 20 
   1  10  10  10  10  10  10  10  10  10  10   1 22
   2  10  10  10  10  10  10  10  10  10  10   1 22
   0   0   0   0   0   0   0   0   0   0   0   0 
